(set-logic QF_S)
(declare-fun var0 () String)
(assert (str.in.re var0 (re.++ (re.+ (re.union (str.to.re "00") (str.to.re "111"))) (re.++ (re.+ (re.* (str.to.re "2"))) (re.++ (re.+ (re.* (str.to.re "33"))) (re.++ (re.+ (re.+ (str.to.re "444"))) (re.++ (re.+ (re.* (str.to.re "5"))) (re.++ (re.+ (re.+ (str.to.re "666"))) (re.++ (re.union (re.* (str.to.re "7")) (re.* (str.to.re "8"))) (re.++ (re.* (re.union (str.to.re "99") (str.to.re "aaa"))) (re.++ (re.+ (re.+ (str.to.re "bbb"))) (re.++ (re.* (re.* (str.to.re "cc"))) (re.++ (re.union (re.* (str.to.re "d")) (re.* (str.to.re "e"))) (re.++ (re.* (re.* (str.to.re "ff"))) (re.++ (re.* (re.union (str.to.re "g") (str.to.re "h"))) (re.++ (re.* (re.+ (str.to.re "i"))) (re.++ (re.union (re.union (str.to.re "jj") (str.to.re "k")) (re.union (str.to.re "l") (str.to.re "mmm"))) (re.++ (re.union (re.union (str.to.re "nn") (str.to.re "ooo")) (re.union (str.to.re "ppp") (str.to.re "qq"))) (re.++ (re.union (re.union (str.to.re "rr") (str.to.re "sss")) (re.union (str.to.re "t") (str.to.re "uu"))) (re.++ (re.* (re.+ (str.to.re "vv"))) (re.++ (re.union (re.+ (str.to.re "w")) (re.+ (str.to.re "x"))) (re.++ (re.* (re.* (str.to.re "yyy"))) (re.++ (re.union (re.+ (str.to.re "zz")) (re.+ (str.to.re "AA"))) (re.++ (re.union (re.* (str.to.re "BBB")) (re.* (str.to.re "CC"))) (re.++ (re.union (re.* (str.to.re "D")) (re.* (str.to.re "E"))) (re.++ (re.+ (re.* (str.to.re "FFF"))) (re.++ (re.union (re.* (str.to.re "G")) (re.* (str.to.re "HH"))) (re.++ (re.union (re.+ (str.to.re "III")) (re.+ (str.to.re "J"))) (re.++ (re.union (re.+ (str.to.re "KKK")) (re.+ (str.to.re "LL"))) (re.++ (re.* (re.+ (str.to.re "M"))) (re.* (re.union (str.to.re "NNN") (str.to.re "OO")))))))))))))))))))))))))))))))))
(check-sat)